4 
5  13 30 45 
6  00 15 30 45 57 
7  12 27 42 57 
8  12 27 42 57 
9  12 27 42 57 
10  12 27 42 57 
11  12 27 42 57 
12  12 27 42 57 
13  13 28 43 58 
14  13 28 43 57 
15  12 27 42 57 
16  12 27 42 57 
17  12 27 42 57 
18  12 27 42 58 
19  12 27 42 59 
20  14 29 44 59 
21  14 29 44 59 
22  14 29 44 
23  00 19 36 
0 
